0000000000000000
0000000000000000
0000000000000000
0111111111100000
0000000000100000
0000000000100000
0000000000100000
0000000000100000
0000000000100000
0000000000100000
0000000000100000
0000000000100000
0000000000100000
0111111111111100
0000000000000000
0000000000000000
